(set-option :auto-config true)
(set-option :produce-models true)

(display #b0100)
(display (_ bv20 8))
(display (_ bv20 7))
(display #x0a) 
(set-option :pp-bv-literals false)
(display #b0100)
(display (_ bv20 8))
(display (_ bv20 7))
(display #x0a) 
